column=6;
row=6;
Board=[|0,1,0,6,0,0|0,5,0,3,0,6|0,3,0,0,0,0|0,6,2,4,0,0|3,0,0,2,0,0|6,2,5,0,0,3|];
horizontal=[|0,1,0,0,0|0,2,0,0,0|0,2,0,1,2|1,0,0,0,0|1,0,0,0,0|0,0,0,0,0|];
vertical=[|0,0,1,2,2,0|0,0,0,1,0,0|0,0,0,0,2,1|0,0,0,2,1,0|0,0,2,0,2,0|];
